serverCount = 4;
virtualizedServiceCount = 15;
virtualizedServiceResourceUsages = 
  [|   1,  4,  7,  5,  6,  4,  4,  2,  7,  5,  5,  5,  3,  2, 10,
   |   4,  1,  3,  7,  2,  9,  4,  8,  2,  5,  6,  6, 10,  3,  3,
   |   2,  2,  3,  9,  8, 10, 10,  8,  2,  3,  3,  5,  1,  4,  1,
   |   7,  8, 10,  9,  5,  6,  8,  5,  5,  2, 10,  1,  1,  4, 10,
   |];

serverCapacities = 
[
  25,
  25,
  25,
  25,
];

allocationCosts =
  [|  10,  7,  2,  4,  9,  1,  4,  9,  6,  9,  4,  4,  4, 10,  2,
   |   5,  4,  6,  1,  9,  2,  1,  3,  1,  5,  4,  1, 10,  5,  7,
   |   1,  1,  1,  7,  7, 10,  4,  5,  7,  4,  5,  5,  6,  5,  5,
   |  10,  7,  2,  5,  3,  3,  9,  9,  2,  8,  4,  6,  8,  8,  3,
   |];

lambda = 5;
sla = 0.9;
requestTypeCount = 1;
requestTypeSizes = 
[
  5
];
